NAME: small5
COMMENT: 5-city problem
TYPE: TSP
DIMENSION: 7
OPTIMUM: 2314
EDGE_WEIGHT_TYPE : EUC_2D
NODE_COORD_SECTION
1 565  575 
2 25  185 
3 345  750 
4 945  685 
5 845  655 
6 125  365
7 415  425
EOF 